lattice_vector 3.0000000000000000 0.0000000000000000 0.0000000000000000 
lattice_vector 0.0000000000000000 1.5000000000000000 0.0000000000000000 
lattice_vector 0.0000000000000000 0.0000000000000000 1.5000000000000000 
atom           0.0000000000000000 0.0000000000000000  0.0000000000000000 H
atom           1.5000000000000000 0.0000000000000000  0.0000000000000000 H
